%%%%%%%%%%%%%%%%%%%%%%%%%%%%%%%%%%%%%%%%%%%%%%%%%%%%%%%%%%%%%%%%%%%%%%%%%
%FILE DATA:	Soccer Computational Problem for MiniZinc Models
%AUTHORS:	Robinson Duque, Alejandro Arbelaez, Juan Francisco Díaz
%CONTACT:  	robinson.duque@correounivalle.edu.co 
%LAST UPDATE:	May, 2018 
%ROUND ROBIN:2
%TEAMS:20
%PRESENT FIXTURE:22
%FIXTURES TO PLAY:16
%GAMES TO PLAY:160
%%%%%%%%%%%%%%%%%%%%%%%%%%%%%%%%%%%%%%%%%%%%%%%%%%%%%%%%%%%%%%%%%%%%%%%%%
%Number of teams:
n=20;

%For the purpose of our models, we offer two representations of the games to play, namely fixtures and games to play:

%Fixtures to play:
%fixtures=[|0,1,1,0,1,1,0,0,1,1,1,1,1,1,1,1,1,1,1,1
%|1,0,0,1,1,1,0,0,1,1,1,1,1,1,1,1,1,1,1,1
%|1,0,0,1,1,1,0,1,1,1,1,0,1,1,1,1,1,1,1,1
%|0,1,1,0,1,1,1,1,1,1,0,1,1,0,1,1,1,1,1,1
%|1,1,1,1,0,1,1,0,1,0,1,1,1,0,1,1,1,1,1,1
%|1,1,1,1,1,0,1,1,1,0,1,1,1,0,1,1,0,1,1,1
%|0,0,0,1,1,1,0,1,1,1,1,1,1,1,1,1,1,1,1,1
%|0,0,1,1,0,1,1,0,1,1,1,1,1,1,1,1,1,1,1,1
%|1,1,1,1,1,1,1,1,0,1,0,0,1,1,0,1,1,1,1,1
%|1,1,1,1,0,0,1,1,1,0,0,1,1,1,1,1,1,1,1,1
%|1,1,1,0,1,1,1,1,0,0,0,1,1,1,1,1,1,1,1,1
%|1,1,0,1,1,1,1,1,0,1,1,0,0,1,1,1,1,1,1,1
%|1,1,1,1,1,1,1,1,1,1,1,0,0,1,0,0,1,1,1,1
%|1,1,1,0,0,0,1,1,1,1,1,1,1,0,1,1,1,1,1,1
%|1,1,1,1,1,1,1,1,0,1,1,1,0,1,0,0,1,1,1,1
%|1,1,1,1,1,1,1,1,1,1,1,1,0,1,0,0,1,1,0,1
%|1,1,1,1,1,0,1,1,1,1,1,1,1,1,1,1,0,0,1,0
%|1,1,1,1,1,1,1,1,1,1,1,1,1,1,1,1,0,0,0,0
%|1,1,1,1,1,1,1,1,1,1,1,1,1,1,1,0,1,0,0,0
%|1,1,1,1,1,1,1,1,1,1,1,1,1,1,1,1,0,0,0,0|];

%Played Fixtures:
%PlayedFixtures=[|0,1,1,2,1,1,2,2,1,1,1,1,1,1,1,1,1,1,1,1
%|1,0,2,1,1,1,2,2,1,1,1,1,1,1,1,1,1,1,1,1
%|1,2,0,1,1,1,2,1,1,1,1,2,1,1,1,1,1,1,1,1
%|2,1,1,0,1,1,1,1,1,1,2,1,1,2,1,1,1,1,1,1
%|1,1,1,1,0,1,1,2,1,2,1,1,1,2,1,1,1,1,1,1
%|1,1,1,1,1,0,1,1,1,2,1,1,1,2,1,1,2,1,1,1
%|2,2,2,1,1,1,0,1,1,1,1,1,1,1,1,1,1,1,1,1
%|2,2,1,1,2,1,1,0,1,1,1,1,1,1,1,1,1,1,1,1
%|1,1,1,1,1,1,1,1,0,1,2,2,1,1,2,1,1,1,1,1
%|1,1,1,1,2,2,1,1,1,0,2,1,1,1,1,1,1,1,1,1
%|1,1,1,2,1,1,1,1,2,2,0,1,1,1,1,1,1,1,1,1
%|1,1,2,1,1,1,1,1,2,1,1,0,2,1,1,1,1,1,1,1
%|1,1,1,1,1,1,1,1,1,1,1,2,0,1,2,2,1,1,1,1
%|1,1,1,2,2,2,1,1,1,1,1,1,1,0,1,1,1,1,1,1
%|1,1,1,1,1,1,1,1,2,1,1,1,2,1,0,2,1,1,1,1
%|1,1,1,1,1,1,1,1,1,1,1,1,2,1,2,0,1,1,2,1
%|1,1,1,1,1,2,1,1,1,1,1,1,1,1,1,1,0,2,1,2
%|1,1,1,1,1,1,1,1,1,1,1,1,1,1,1,1,2,0,2,2
%|1,1,1,1,1,1,1,1,1,1,1,1,1,1,1,2,1,2,0,2
%|1,1,1,1,1,1,1,1,1,1,1,1,1,1,1,1,2,2,2,0|];

%Games to play:
games=[|2,1|3,1|4,2|4,3|5,1|5,2|5,3|5,4|6,1|6,2|6,3|6,4|6,5|7,4|7,5|7,6|8,3|8,4|8,6|8,7|9,1|9,2|9,3|9,4|9,5|9,6|9,7|9,8|10,1|10,2|10,3|10,4|10,7|10,8|10,9|11,1|11,2|11,3|11,5|11,6|11,7|11,8|12,1|12,2|12,4|12,5|12,6|12,7|12,8|12,10|12,11|13,1|13,2|13,3|13,4|13,5|13,6|13,7|13,8|13,9|13,10|13,11|14,1|14,2|14,3|14,7|14,8|14,9|14,10|14,11|14,12|14,13|15,1|15,2|15,3|15,4|15,5|15,6|15,7|15,8|15,10|15,11|15,12|15,14|16,1|16,2|16,3|16,4|16,5|16,6|16,7|16,8|16,9|16,10|16,11|16,12|16,14|17,1|17,2|17,3|17,4|17,5|17,7|17,8|17,9|17,10|17,11|17,12|17,13|17,14|17,15|17,16|18,1|18,2|18,3|18,4|18,5|18,6|18,7|18,8|18,9|18,10|18,11|18,12|18,13|18,14|18,15|18,16|19,1|19,2|19,3|19,4|19,5|19,6|19,7|19,8|19,9|19,10|19,11|19,12|19,13|19,14|19,15|19,17|20,1|20,2|20,3|20,4|20,5|20,6|20,7|20,8|20,9|20,10|20,11|20,12|20,13|20,14|20,15|20,16|];

%Played Games:
%PlayedGames=[|2,1|3,1|3,2|3,2|4,1|4,1|4,2|4,3|5,1|5,2|5,3|5,4|6,1|6,2|6,3|6,4|6,5|7,1|7,1|7,2|7,2|7,3|7,3|7,4|7,5|7,6|8,1|8,1|8,2|8,2|8,3|8,4|8,5|8,5|8,6|8,7|9,1|9,2|9,3|9,4|9,5|9,6|9,7|9,8|10,1|10,2|10,3|10,4|10,5|10,5|10,6|10,6|10,7|10,8|10,9|11,1|11,2|11,3|11,4|11,4|11,5|11,6|11,7|11,8|11,9|11,9|11,10|11,10|12,1|12,2|12,3|12,3|12,4|12,5|12,6|12,7|12,8|12,9|12,9|12,10|12,11|13,1|13,2|13,3|13,4|13,5|13,6|13,7|13,8|13,9|13,10|13,11|13,12|13,12|14,1|14,2|14,3|14,4|14,4|14,5|14,5|14,6|14,6|14,7|14,8|14,9|14,10|14,11|14,12|14,13|15,1|15,2|15,3|15,4|15,5|15,6|15,7|15,8|15,9|15,9|15,10|15,11|15,12|15,13|15,13|15,14|16,1|16,2|16,3|16,4|16,5|16,6|16,7|16,8|16,9|16,10|16,11|16,12|16,13|16,13|16,14|16,15|16,15|17,1|17,2|17,3|17,4|17,5|17,6|17,6|17,7|17,8|17,9|17,10|17,11|17,12|17,13|17,14|17,15|17,16|18,1|18,2|18,3|18,4|18,5|18,6|18,7|18,8|18,9|18,10|18,11|18,12|18,13|18,14|18,15|18,16|18,17|18,17|19,1|19,2|19,3|19,4|19,5|19,6|19,7|19,8|19,9|19,10|19,11|19,12|19,13|19,14|19,15|19,16|19,16|19,17|19,18|19,18|20,1|20,2|20,3|20,4|20,5|20,6|20,7|20,8|20,9|20,10|20,11|20,12|20,13|20,14|20,15|20,16|20,17|20,17|20,18|20,18|20,19|20,19|];

%Played Games - Win Results:
%% 0  0  1  0  0  0  0  0  0  0  0  1  0  0  0  0  0  0  0  1
%% 0  0  0  0  0  0  0  0  0  0  0  0  1  0  0  0  0  0  0  0
%% 0  0  0  0  0  0  0  0  0  0  0  0  0  1  0  0  0  0  0  0
%% 0  0  0  0  0  0  0  0  0  0  0  1  0  0  0  0  0  0  0  0
%% 1  0  0  1  0  1  0  0  1  0  0  1  0  0  0  1  0  0  0  0
%% 0  1  0  0  0  0  0  1  1  0  0  1  1  0  0  0  0  0  0  0
%% 0  0  0  1  0  1  0  1  1  1  1  0  0  1  0  1  0  0  0  1
%% 0  0  0  0  0  0  0  0  0  0  0  0  0  0  0  0  0  0  0  0
%% 0  1  1  1  0  0  0  1  0  0  0  0  0  1  0  0  0  0  0  0
%% 0  0  1  0  0  0  0  0  1  0  0  1  1  1  1  0  1  0  0  1
%% 1  1  1  0  1  0  0  1  0  0  0  0  0  1  1  0  0  0  0  1
%% 0  1  0  0  0  0  0  0  0  0  0  0  0  0  0  0  0  0  0  0
%% 0  0  0  0  0  0  0  0  0  0  0  0  0  0  0  0  0  0  0  0
%% 0  1  0  0  0  0  0  0  0  0  0  0  0  0  0  0  0  0  0  0
%% 0  0  1  1  1  1  0  0  0  0  0  1  0  0  0  0  0  0  0  0
%% 0  0  1  1  0  1  0  0  1  0  0  1  0  1  0  0  0  0  0  1
%% 1  0  0  1  0  0  0  0  0  0  1  0  1  0  1  1  0  0  0  2
%% 1  1  0  1  1  0  1  1  0  1  0  0  1  1  1  1  2  0  0  0
%% 1  1  1  0  1  0  1  0  0  1  1  0  1  0  1  0  0  2  0  2
%% 0  0  0  0  0  1  0  0  0  0  0  0  0  0  0  0  0  0  0  0
%Played Games - Tie Results:
%% 0  1  0  2  0  1  2  2  1  1  0  0  1  1  1  1  0  0  0  0
%% 1  0  2  1  1  0  2  2  0  1  0  0  0  0  1  1  1  0  0  1
%% 0  2  0  1  1  1  2  1  0  0  0  2  1  0  0  0  1  1  0  1
%% 2  1  1  0  0  1  0  1  0  1  2  0  1  2  0  0  0  0  1  1
%% 0  1  1  0  0  0  1  2  0  2  0  0  1  2  0  0  1  0  0  1
%% 1  0  1  1  0  0  0  0  0  2  1  0  0  2  0  0  2  1  1  0
%% 2  2  2  0  1  0  0  0  0  0  0  1  1  0  1  0  1  0  0  0
%% 2  2  1  1  2  0  0  0  0  1  0  1  1  1  1  1  1  0  1  1
%% 1  0  0  0  0  0  0  0  0  0  2  2  1  0  2  0  1  1  1  1
%% 1  1  0  1  2  2  0  1  0  0  2  0  0  0  0  1  0  0  0  0
%% 0  0  0  2  0  1  0  0  2  2  0  1  1  0  0  1  0  1  0  0
%% 0  0  2  0  0  0  1  1  2  0  1  0  2  1  0  0  1  1  1  1
%% 1  0  1  1  1  0  1  1  1  0  1  2  0  1  2  2  0  0  0  1
%% 1  0  0  2  2  2  0  1  0  0  0  1  1  0  1  0  1  0  1  1
%% 1  1  0  0  0  0  1  1  2  0  0  0  2  1  0  2  0  0  0  1
%% 1  1  0  0  0  0  0  1  0  1  1  0  2  0  2  0  0  0  2  0
%% 0  1  1  0  1  2  1  1  1  0  0  1  0  1  0  0  0  0  1  0
%% 0  0  1  0  0  1  0  0  1  0  1  1  0  0  0  0  0  0  0  2
%% 0  0  0  1  0  1  0  1  1  0  0  1  0  1  0  2  1  0  0  0
%% 0  1  1  1  1  0  0  1  1  0  0  1  1  1  1  0  0  2  0  0
%Played Games - Lose Results:
%% 0  0  0  0  1  0  0  0  0  0  1  0  0  0  0  0  1  1  1  0
%% 0  0  0  0  0  1  0  0  1  0  1  1  0  1  0  0  0  1  1  0
%% 1  0  0  0  0  0  0  0  1  1  1  0  0  0  1  1  0  0  1  0
%% 0  0  0  0  1  0  1  0  1  0  0  0  0  0  1  1  1  1  0  0
%% 0  0  0  0  0  0  0  0  0  0  1  0  0  0  1  0  0  1  1  0
%% 0  0  0  0  1  0  1  0  0  0  0  0  0  0  1  1  0  0  0  1
%% 0  0  0  0  0  0  0  0  0  0  0  0  0  0  0  0  0  1  1  0
%% 0  0  0  0  0  1  1  0  1  0  1  0  0  0  0  0  0  1  0  0
%% 0  0  0  0  1  1  1  0  0  1  0  0  0  0  0  1  0  0  0  0
%% 0  0  0  0  0  0  1  0  0  0  0  0  0  0  0  0  0  1  1  0
%% 0  0  0  0  0  0  1  0  0  0  0  0  0  0  0  0  1  0  1  0
%% 1  0  0  1  1  1  0  0  0  1  0  0  0  0  1  1  0  0  0  0
%% 0  1  0  0  0  1  0  0  0  1  0  0  0  0  0  0  1  1  1  0
%% 0  0  1  0  0  0  1  0  1  1  1  0  0  0  0  1  0  1  0  0
%% 0  0  0  0  0  0  0  0  0  1  1  0  0  0  0  0  1  1  1  0
%% 0  0  0  0  1  0  1  0  0  0  0  0  0  0  0  0  1  1  0  0
%% 0  0  0  0  0  0  0  0  0  1  0  0  0  0  0  0  0  2  0  0
%% 0  0  0  0  0  0  0  0  0  0  0  0  0  0  0  0  0  0  2  0
%% 0  0  0  0  0  0  0  0  0  0  0  0  0  0  0  0  0  0  0  0
%% 1  0  0  0  0  0  1  0  0  1  1  0  0  0  0  1  2  0  2  0

%%Initial points:
iPoints=[23, 17, 17, 17, 30, 27, 38, 17, 27, 35, 35, 17, 16, 17, 27, 32, 35, 46, 48, 15];

%%Initial positions:
%iPositions=[12, 18, 17, 16, 8, 11, 3, 15, 10, 6, 5, 14, 19, 13, 9, 7, 4, 2, 1, 20];

%%Position Constraints:
%numberPositionConstraints=1;

%%Total Fixtures:
%totalFixtures=38;

%%Fixtures to Play:
%fixturesToPlay=16;

%%Position Constraints Built With
%wantedPoints=[3, 1, 0, 1, 0, 3, 0, 0, 3, 0, 3, 0, 0, 1, 0, 0, 0, 0, 3, 1, 3, 1, 1, 0, 3, 0, 0, 1, 1, 3, 1, 3, 0, 3, 1, 3, 3, 0, 1, 0, 0, 0, 3, 1, 1, 0, 1, 0, 1, 0, 1, 0, 0, 0, 3, 1, 0, 1, 3, 1, 1, 0, 3, 1, 0, 3, 3, 0, 0, 1, 1, 3, 1, 0, 3, 3, 0, 0, 3, 3, 0, 3, 3, 3, 3, 3, 0, 3, 0, 0, 0, 3, 3, 0, 1, 3, 1, 1, 1, 1, 1, 0, 3, 0, 3, 1, 1, 0, 0, 0, 3, 1, 1, 3, 1, 0, 1, 1, 3, 1, 3, 1, 3, 0, 3, 1, 1, 1, 3, 1, 1, 1, 3, 3, 1, 1, 0, 1, 3, 0, 1, 0, 3, 1, 3, 0, 3, 1, 3, 3, 0, 1, 0, 0, 1, 3, 3, 1, 0, 3];

%%Probabilities:
probabilities=[|88,10,0,2,|71,8,0,21,|77,1,0,22,|10,42,0,48,|63,9,0,28,|38,12,0,50,|50,49,0,1,|39,37,0,24,|6,18,0,76,|17,38,0,45,|20,29,0,51,|67,1,0,32,|56,4,0,40,|1,11,0,88,|62,29,0,9,|88,6,0,6,|42,39,0,19,|15,61,0,24,|61,35,0,4,|25,53,0,22,|41,42,0,17,|96,4,0,0,|25,68,0,7,|45,5,0,50,|20,74,0,6,|20,27,0,53,|90,1,0,9,|55,26,0,19,|10,6,0,84,|34,27,0,39,|69,26,0,5,|33,66,0,1,|72,16,0,12,|3,26,0,71,|96,4,0,0,|40,29,0,31,|19,35,0,46,|75,9,0,16,|65,8,0,27,|97,0,0,3,|76,14,0,10,|6,8,0,86,|67,26,0,7,|51,36,0,13,|2,61,0,37,|33,64,0,3,|51,15,0,34,|39,27,0,34,|27,65,0,8,|43,44,0,13,|5,47,0,48,|77,5,0,18,|31,30,0,39,|54,9,0,37,|39,34,0,27,|62,11,0,27,|4,88,0,8,|75,2,0,23,|14,72,0,14,|55,38,0,7,|53,5,0,42,|17,9,0,74,|25,51,0,24,|31,40,0,29,|70,8,0,22,|71,19,0,10,|85,6,0,9,|93,2,0,5,|18,76,0,6,|81,8,0,11,|5,32,0,63,|27,52,0,21,|6,63,0,31,|93,7,0,0,|32,55,0,13,|92,1,0,7,|98,1,0,1,|89,5,0,6,|55,40,0,5,|32,14,0,54,|48,18,0,34,|63,21,0,16,|58,28,0,14,|79,18,0,3,|1,43,0,56,|51,12,0,37,|53,24,0,23,|19,20,0,61,|25,52,0,23,|72,24,0,4,|57,31,0,12,|95,3,0,2,|20,1,0,79,|11,86,0,3,|88,4,0,8,|72,3,0,25,|52,44,0,4,|40,17,0,43,|80,0,0,20,|82,4,0,14,|20,52,0,28,|84,9,0,7,|56,22,0,22,|90,4,0,6,|32,25,0,43,|50,24,0,26,|60,12,0,28,|90,2,0,8,|14,80,0,6,|16,32,0,52,|79,3,0,18,|76,14,0,10,|44,15,0,41,|1,9,0,90,|14,71,0,15,|35,7,0,58,|90,3,0,7,|97,1,0,2,|28,60,0,12,|74,14,0,12,|34,63,0,3,|80,11,0,9,|43,17,0,40,|36,48,0,16,|51,17,0,32,|77,10,0,13,|93,7,0,0,|20,53,0,27,|5,75,0,20,|52,45,0,3,|1,77,0,22,|4,72,0,24,|93,2,0,5,|4,65,0,31,|10,33,0,57,|8,36,0,56,|15,58,0,27,|44,35,0,21,|66,3,0,31,|57,37,0,6,|53,42,0,5,|44,15,0,41,|67,0,0,33,|88,0,0,12,|24,0,0,76,|8,15,0,77,|90,9,0,1,|15,12,0,73,|35,22,0,43,|3,90,0,7,|13,12,0,75,|95,0,0,5,|21,30,0,49,|99,1,0,0,|95,1,0,4,|82,17,0,1,|57,8,0,35,|67,26,0,7,|98,1,0,1,|8,40,0,52,|];


%POSITION CONSTRAINTS
%%[|teamID, operator, position|...]
%%operators index:
%%%1 for =  operator
%%%2 for >  operator
%%%3 for >= operator
%%%4 for <  operator
%%%5 for <= operator

positionConstraints=[|8,1,19|];

%SCORE VECTOR CONSTRAINTS
%%[|teamID, operator, wantedPoints|...]
%%operators index:
%%%1 for =  operator
%%%2 for >  operator
%%%3 for >= operator
%%%4 for <  operator
%%%5 for <= operator

%scoreVectorConstraints=[|8,1,32|];

%Instance Features:
%features=T,FP,TF,C,C/T,C/TF,FP/TF,FP/T,FP*C/T,FP*T/C,(C/T)*(FP/TF),Distance,Distance/C,Distance/T,Distance/(C*T)
%values=20,16,38,1,0.05,0.02631578947368421,0.4210526315789473,0.8,0.8,320.0,0.02105263157894737,4,4.0,0.2,0.2



